p cnf 104 225
49 -14 12 -11 0
-49 14 0
-49 -12 0
-49 11 0
50 -1 0
-50 1 0
51 -21 19 -18 0
-51 21 0
-51 -19 0
-51 18 0
52 -40 38 -37 0
-52 40 0
-52 -38 0
-52 37 0
53 -8 7 -6 0
-53 8 0
-53 -7 0
-53 6 0
54 -30 28 -27 0
-54 30 0
-54 -28 0
-54 27 0
-2 49 50 51 52 53 54 0
2 -49 0
2 -50 0
2 -51 0
2 -52 0
2 -53 0
2 -54 0
55 -19 -18 0
-55 19 0
-55 18 0
56 -3 -2 0
-56 3 0
-56 2 0
57 -38 -37 0
-57 38 0
-57 37 0
58 -7 -6 0
-58 7 0
-58 6 0
59 -28 -27 0
-59 28 0
-59 27 0
60 -12 -11 0
-60 12 0
-60 11 0
-4 55 56 57 58 59 60 0
4 -55 0
4 -56 0
4 -57 0
4 -58 0
4 -59 0
4 -60 0
61 -5 0
-61 5 0
62 -23 20 -18 0
-62 23 0
-62 -20 0
-62 18 0
63 -16 13 -11 0
-63 16 0
-63 -13 0
-63 11 0
64 -32 29 -27 0
-64 32 0
-64 -29 0
-64 27 0
65 -42 39 -37 0
-65 42 0
-65 -39 0
-65 37 0
-6 61 62 63 64 65 0
6 -61 0
6 -62 0
6 -63 0
6 -64 0
6 -65 0
66 -8 0
-66 8 0
67 -7 0
-67 7 0
-9 66 67 0
9 -66 0
9 -67 0
68 -44 41 -37 0
-68 44 0
-68 -41 0
-68 37 0
69 -34 31 -27 0
-69 34 0
-69 -31 0
-69 27 0
70 -25 22 -18 0
-70 25 0
-70 -22 0
-70 18 0
71 -10 0
-71 10 0
-11 68 69 70 71 0
11 -68 0
11 -69 0
11 -70 0
11 -71 0
72 -12 0
-72 12 0
73 -14 0
-73 14 0
-13 72 73 0
13 -72 0
13 -73 0
74 -16 0
-74 16 0
75 -13 0
-75 13 0
-15 74 75 0
15 -74 0
15 -75 0
76 -35 33 -27 0
-76 35 0
-76 -33 0
-76 27 0
77 -46 43 -37 0
-77 46 0
-77 -43 0
-77 37 0
78 -17 0
-78 17 0
-18 76 77 78 0
18 -76 0
18 -77 0
18 -78 0
79 -19 0
-79 19 0
80 -21 0
-80 21 0
-20 79 80 0
20 -79 0
20 -80 0
81 -23 0
-81 23 0
82 -20 0
-82 20 0
-22 81 82 0
22 -81 0
22 -82 0
83 -22 0
-83 22 0
84 -25 0
-84 25 0
-24 83 84 0
24 -83 0
24 -84 0
85 -26 0
-85 26 0
86 -47 45 -37 0
-86 47 0
-86 -45 0
-86 37 0
-27 85 86 0
27 -85 0
27 -86 0
87 -28 0
-87 28 0
88 -30 0
-88 30 0
-29 87 88 0
29 -87 0
29 -88 0
89 -32 0
-89 32 0
90 -29 0
-90 29 0
-31 89 90 0
31 -89 0
31 -90 0
91 -31 0
-91 31 0
92 -34 0
-92 34 0
-33 91 92 0
33 -91 0
33 -92 0
93 -35 0
-93 35 0
94 -33 0
-94 33 0
-36 93 94 0
36 -93 0
36 -94 0
95 -38 0
-95 38 0
96 -40 0
-96 40 0
-39 95 96 0
39 -95 0
39 -96 0
97 -39 0
-97 39 0
98 -42 0
-98 42 0
-41 97 98 0
41 -97 0
41 -98 0
99 -44 0
-99 44 0
100 -41 0
-100 41 0
-43 99 100 0
43 -99 0
43 -100 0
101 -43 0
-101 43 0
102 -46 0
-102 46 0
-45 101 102 0
45 -101 0
45 -102 0
103 -45 0
-103 45 0
104 -47 0
-104 47 0
-48 103 104 0
48 -103 0
48 -104 0
c p weight 1 0.5 0
c p weight -1 0.5 0
c p weight 2 1.0 0
c p weight -2 1.0 0
c p weight 3 1.0 0
c p weight -3 0.0 0
c p weight 4 1.0 0
c p weight -4 0.0 0
c p weight 5 0.5 0
c p weight -5 0.5 0
c p weight 6 1.0 0
c p weight -6 1.0 0
c p weight 7 0.5 0
c p weight -7 0.5 0
c p weight 8 1.0 0
c p weight -8 0.0 0
c p weight 9 1.0 0
c p weight -9 1.0 0
c p weight 10 0.5 0
c p weight -10 0.5 0
c p weight 11 1.0 0
c p weight -11 1.0 0
c p weight 12 0.3333333333333333 0
c p weight -12 0.6666666666666667 0
c p weight 13 1.0 0
c p weight -13 1.0 0
c p weight 14 0.49999999999999994 0
c p weight -14 0.5 0
c p weight 15 1.0 0
c p weight -15 1.0 0
c p weight 16 0.9999999999999997 0
c p weight -16 3.3306690738754696e-16 0
c p weight 17 0.5 0
c p weight -17 0.5 0
c p weight 18 1.0 0
c p weight -18 1.0 0
c p weight 19 0.25 0
c p weight -19 0.75 0
c p weight 20 1.0 0
c p weight -20 1.0 0
c p weight 21 0.3333333333333333 0
c p weight -21 0.6666666666666667 0
c p weight 22 1.0 0
c p weight -22 1.0 0
c p weight 23 0.5 0
c p weight -23 0.5 0
c p weight 24 1.0 0
c p weight -24 1.0 0
c p weight 25 1.0 0
c p weight -25 0.0 0
c p weight 26 0.5 0
c p weight -26 0.5 0
c p weight 27 1.0 0
c p weight -27 1.0 0
c p weight 28 0.2 0
c p weight -28 0.8 0
c p weight 29 1.0 0
c p weight -29 1.0 0
c p weight 30 0.25 0
c p weight -30 0.75 0
c p weight 31 1.0 0
c p weight -31 1.0 0
c p weight 32 0.3333333333333333 0
c p weight -32 0.6666666666666667 0
c p weight 33 1.0 0
c p weight -33 1.0 0
c p weight 34 0.49999999999999994 0
c p weight -34 0.5 0
c p weight 35 0.9999999999999998 0
c p weight -35 2.220446049250313e-16 0
c p weight 36 1.0 0
c p weight -36 1.0 0
c p weight 37 0.5 0
c p weight -37 0.5 0
c p weight 38 0.16666666666666666 0
c p weight -38 0.8333333333333334 0
c p weight 39 1.0 0
c p weight -39 1.0 0
c p weight 40 0.19999999999999998 0
c p weight -40 0.8 0
c p weight 41 1.0 0
c p weight -41 1.0 0
c p weight 42 0.24999999999999997 0
c p weight -42 0.75 0
c p weight 43 1.0 0
c p weight -43 1.0 0
c p weight 44 0.33333333333333326 0
c p weight -44 0.6666666666666667 0
c p weight 45 1.0 0
c p weight -45 1.0 0
c p weight 46 0.4999999999999998 0
c p weight -46 0.5000000000000002 0
c p weight 47 0.999999999999999 0
c p weight -47 9.992007221626409e-16 0
c p weight 48 1.0 0
c p weight -48 1.0 0
c p weight 49 1.0 0
c p weight -49 1.0 0
c p weight 50 1.0 0
c p weight -50 1.0 0
c p weight 51 1.0 0
c p weight -51 1.0 0
c p weight 52 1.0 0
c p weight -52 1.0 0
c p weight 53 1.0 0
c p weight -53 1.0 0
c p weight 54 1.0 0
c p weight -54 1.0 0
c p weight 55 1.0 0
c p weight -55 1.0 0
c p weight 56 1.0 0
c p weight -56 1.0 0
c p weight 57 1.0 0
c p weight -57 1.0 0
c p weight 58 1.0 0
c p weight -58 1.0 0
c p weight 59 1.0 0
c p weight -59 1.0 0
c p weight 60 1.0 0
c p weight -60 1.0 0
c p weight 61 1.0 0
c p weight -61 1.0 0
c p weight 62 1.0 0
c p weight -62 1.0 0
c p weight 63 1.0 0
c p weight -63 1.0 0
c p weight 64 1.0 0
c p weight -64 1.0 0
c p weight 65 1.0 0
c p weight -65 1.0 0
c p weight 66 1.0 0
c p weight -66 1.0 0
c p weight 67 1.0 0
c p weight -67 1.0 0
c p weight 68 1.0 0
c p weight -68 1.0 0
c p weight 69 1.0 0
c p weight -69 1.0 0
c p weight 70 1.0 0
c p weight -70 1.0 0
c p weight 71 1.0 0
c p weight -71 1.0 0
c p weight 72 1.0 0
c p weight -72 1.0 0
c p weight 73 1.0 0
c p weight -73 1.0 0
c p weight 74 1.0 0
c p weight -74 1.0 0
c p weight 75 1.0 0
c p weight -75 1.0 0
c p weight 76 1.0 0
c p weight -76 1.0 0
c p weight 77 1.0 0
c p weight -77 1.0 0
c p weight 78 1.0 0
c p weight -78 1.0 0
c p weight 79 1.0 0
c p weight -79 1.0 0
c p weight 80 1.0 0
c p weight -80 1.0 0
c p weight 81 1.0 0
c p weight -81 1.0 0
c p weight 82 1.0 0
c p weight -82 1.0 0
c p weight 83 1.0 0
c p weight -83 1.0 0
c p weight 84 1.0 0
c p weight -84 1.0 0
c p weight 85 1.0 0
c p weight -85 1.0 0
c p weight 86 1.0 0
c p weight -86 1.0 0
c p weight 87 1.0 0
c p weight -87 1.0 0
c p weight 88 1.0 0
c p weight -88 1.0 0
c p weight 89 1.0 0
c p weight -89 1.0 0
c p weight 90 1.0 0
c p weight -90 1.0 0
c p weight 91 1.0 0
c p weight -91 1.0 0
c p weight 92 1.0 0
c p weight -92 1.0 0
c p weight 93 1.0 0
c p weight -93 1.0 0
c p weight 94 1.0 0
c p weight -94 1.0 0
c p weight 95 1.0 0
c p weight -95 1.0 0
c p weight 96 1.0 0
c p weight -96 1.0 0
c p weight 97 1.0 0
c p weight -97 1.0 0
c p weight 98 1.0 0
c p weight -98 1.0 0
c p weight 99 1.0 0
c p weight -99 1.0 0
c p weight 100 1.0 0
c p weight -100 1.0 0
c p weight 101 1.0 0
c p weight -101 1.0 0
c p weight 102 1.0 0
c p weight -102 1.0 0
c p weight 103 1.0 0
c p weight -103 1.0 0
c p weight 104 1.0 0
c p weight -104 1.0 0
c p semirings aspmc.semirings.probabilistic 0
c p quantify 1 2 3 4 5 6 7 8 9 10 11 12 13 14 15 16 17 18 19 20 21 22 23 24 25 26 27 28 29 30 31 32 33 34 35 36 37 38 39 40 41 42 43 44 45 46 47 48 49 50 51 52 53 54 55 56 57 58 59 60 61 62 63 64 65 66 67 68 69 70 71 72 73 74 75 76 77 78 79 80 81 82 83 84 85 86 87 88 89 90 91 92 93 94 95 96 97 98 99 100 101 102 103 104 0
c p auxilliary 2 6 9 11 13 15 18 20 22 24 27 29 31 33 36 39 41 43 45 48 49 50 51 52 53 54 55 56 57 58 59 60 61 62 63 64 65 66 67 68 69 70 71 72 73 74 75 76 77 78 79 80 81 82 83 84 85 86 87 88 89 90 91 92 93 94 95 96 97 98 99 100 101 102 103 104 0
